DATASET = "thpack5";
INSTANCE = "064";

WIDTH = 233;
HEIGHT = 220;
LENGTH = 587;

NO_OF_SHAPES = 12;
size = [|
  114,54,20 |
  92,87,50 |
  114,43,26 |
  93,69,42 |
  80,79,64 |
  99,80,29 |
  60,54,47 |
  54,53,32 |
  113,75,68 |
  67,66,49 |
  65,30,21 |
  110,63,29 |
|];

verticality = [|
  0,0,1 |
  1,1,1 |
  0,1,1 |
  0,1,1 |
  1,1,1 |
  0,0,1 |
  1,1,1 |
  1,1,1 |
  1,1,1 |
  1,1,1 |
  0,1,1 |
  0,0,1 |
|];

box_count = [
  8,
  12,
  10,
  4,
  9,
  16,
  8,
  7,
  14,
  10,
  8,
  9,
];
